(set-logic OBJ)

; ∀ x ∈ POS. Respect(x) = true
; ∀ x ∈ NEG. Respect(x) = false
(synth-fun Respect ((x OBJ)) Bool
    (
        (Start Bool (
            ; Or/And/Not
            (Or Start Start)
            (And Start Start)
            (Not Start)

            ; userdefined functions
			; Person
			(Male x)
			(AgeLess x StartAge)
			(AgeGreater x StartAge)
			(AgeEq x StartAge)
			(Orientation x StartOrientation)
			(Glasses x)
			(Hat x)
			(HoldObjectsInFront x)
			(Bag x StartBag)
			(TopStyle x StartTopStyle)
			(BottomStyle x StartBottomStyle)
			(ShortSleeve x)
			(LongSleeve x)
			(LongCoat x)
			(Trousers x)
			(Shorts x)
			(SkirtDress x)
			(Boots x)
        ))

        ; terminals
		;Person
		(StartOrientation String ("Front" "Back" "Side"))
		(StartBag String ("BackPack" "ShoulderBag" "HandBag" "NoBag"))
		(StartTopStyle String ("UpperStride" "UpperLogo" "UpperPlaid" "UpperSplice" "NoTopStyle"))
		(StartBottomStyle String ("BottomStripe" "BottomPattern" "NoBottomStyle"))
		(StartAge Int (25 26 27 30 31 32 34 35 36 37 40 52 53))
    )
)

; I/O
; +
(declare-var x15 OBJ)
(declare-var x16 OBJ)
(declare-var x19 OBJ)
(declare-var x23 OBJ)
; -
(declare-var x13 OBJ)
(declare-var x17 OBJ)
(declare-var x20 OBJ)
(declare-var x21 OBJ)
(declare-var x22 OBJ)

; facts
; userdefined args = {}
(constraint (= (Respect {"id": 15, "cls": "Person", "Male": True, "Age": 35, "Orientation": "Side", "Glasses": False, "Hat": False, "HoldObjectsInFront": False, "Bag": "ShoulderBag", "TopStyle": "NoTopStyle", "BottomStyle": "NoBottomStyle", "ShortSleeve": True, "LongSleeve": False, "LongCoat": False, "Trousers": True, "Shorts": False, "SkirtDress": False, "Boots": False}) true))
(constraint (= (Respect {"id": 16, "cls": "Person", "Male": True, "Age": 34, "Orientation": "Side", "Glasses": False, "Hat": True, "HoldObjectsInFront": False, "Bag": "NoBag", "TopStyle": "NoTopStyle", "BottomStyle": "NoBottomStyle", "ShortSleeve": True, "LongSleeve": False, "LongCoat": False, "Trousers": True, "Shorts": False, "SkirtDress": False, "Boots": False}) true))
(constraint (= (Respect {"id": 19, "cls": "Person", "Male": True, "Age": 35, "Orientation": "Side", "Glasses": False, "Hat": False, "HoldObjectsInFront": False, "Bag": "NoBag", "TopStyle": "UpperLogo", "BottomStyle": "NoBottomStyle", "ShortSleeve": True, "LongSleeve": False, "LongCoat": False, "Trousers": True, "Shorts": False, "SkirtDress": False, "Boots": False}) true))
(constraint (= (Respect {"id": 23, "cls": "Person", "Male": True, "Age": 36, "Orientation": "Back", "Glasses": False, "Hat": True, "HoldObjectsInFront": False, "Bag": "NoBag", "TopStyle": "NoTopStyle", "BottomStyle": "NoBottomStyle", "ShortSleeve": True, "LongSleeve": False, "LongCoat": False, "Trousers": True, "Shorts": False, "SkirtDress": False, "Boots": True}) true))

(constraint (= (Respect {"id": 13, "cls": "Person", "Male": True, "Age": 32, "Orientation": "Side", "Glasses": False, "Hat": True, "HoldObjectsInFront": False, "Bag": "NoBag", "TopStyle": "UpperPlaid", "BottomStyle": "BottomPattern", "ShortSleeve": False, "LongSleeve": True, "LongCoat": False, "Trousers": True, "Shorts": False, "SkirtDress": False, "Boots": True}) false))
(constraint (= (Respect {"id": 17, "cls": "Person", "Male": True, "Age": 37, "Orientation": "Side", "Glasses": False, "Hat": True, "HoldObjectsInFront": False, "Bag": "NoBag", "TopStyle": "NoTopStyle", "BottomStyle": "NoBottomStyle", "ShortSleeve": True, "LongSleeve": False, "LongCoat": False, "Trousers": True, "Shorts": False, "SkirtDress": False, "Boots": False}) false))
(constraint (= (Respect {"id": 20, "cls": "Person", "Male": True, "Age": 34, "Orientation": "Back", "Glasses": False, "Hat": False, "HoldObjectsInFront": False, "Bag": "NoBag", "TopStyle": "NoTopStyle", "BottomStyle": "NoBottomStyle", "ShortSleeve": True, "LongSleeve": False, "LongCoat": False, "Trousers": True, "Shorts": False, "SkirtDress": False, "Boots": False}) false))
(constraint (= (Respect {"id": 21, "cls": "Person", "Male": True, "Age": 27, "Orientation": "Back", "Glasses": False, "Hat": False, "HoldObjectsInFront": False, "Bag": "NoBag", "TopStyle": "NoTopStyle", "BottomStyle": "NoBottomStyle", "ShortSleeve": True, "LongSleeve": False, "LongCoat": False, "Trousers": False, "Shorts": True, "SkirtDress": False, "Boots": False}) false))
(constraint (= (Respect {"id": 22, "cls": "Person", "Male": True, "Age": 31, "Orientation": "Side", "Glasses": False, "Hat": False, "HoldObjectsInFront": False, "Bag": "NoBag", "TopStyle": "NoTopStyle", "BottomStyle": "NoBottomStyle", "ShortSleeve": False, "LongSleeve": True, "LongCoat": False, "Trousers": True, "Shorts": False, "SkirtDress": False, "Boots": True}) false))

(check-synth)
